n_machines = 5;
n_resources = 10;
n_jobs = 113;
horizon = 57552;
LB = 11510;
n_jobs_per_resource = [7, 19, 11, 15, 4, 17, 8, 11, 19, 2];
duration = [16, 219, 377, 114, 738, 18, 424, 590, 39, 969, 16, 514, 275, 198, 85, 205, 615, 779, 681, 354, 803, 562, 852, 780, 451, 598, 772, 70, 253, 523, 276, 58, 979, 948, 640, 555, 892, 735, 102, 16, 221, 927, 952, 656, 92, 862, 118, 5, 901, 917, 97, 799, 117, 769, 234, 582, 44, 236, 393, 338, 768, 629, 2, 690, 588, 820, 489, 592, 527, 534, 990, 862, 465, 114, 476, 879, 608, 334, 363, 44, 641, 409, 965, 449, 283, 509, 494, 915, 805, 544, 844, 297, 615, 952, 982, 932, 781, 688, 289, 69, 984, 724, 461, 377, 183, 677, 303, 763, 892, 105, 696, 206, 593]